
  32    4
  10   10   10   10

   0   0   0   0   0   9 2 3 4 5 6 7 8 9 10 
   2  10  10  10  10   5 22 20 16 13 12 
   9  10  10  10  10   4 22 21 13 11 
   3  10  10  10  10   6 22 20 19 16 14 13 
   9  10  10  10  10   6 24 20 18 17 14 13 
   2  10  10  10  10   5 24 21 17 16 14 
   1  10  10  10  10   5 22 21 19 18 13 
   5  10  10  10  10   5 21 20 17 14 13 
   4  10  10  10  10   5 24 20 18 14 13 
   6  10  10  10  10   6 31 24 21 20 19 15 
   3  10  10  10  10   5 24 20 19 16 15 
   3  10  10  10  10   5 31 24 21 19 18 
   6  10  10  10  10   2 31 15 
   7  10  10  10  10   1 15 
   4  10  10  10  10   3 26 25 23 
   7  10  10  10  10   1 18 
   2  10  10  10  10   1 19 
   2  10  10  10  10   3 27 26 25 
   4  10  10  10  10   2 26 23 
  10  10  10  10  10   2 28 23 
   1  10  10  10  10   3 29 27 26 
   4  10  10  10  10   1 24 
   6  10  10  10  10   3 30 29 27 
   6  10  10  10  10   2 27 26 
  10  10  10  10  10   2 30 29 
   7  10  10  10  10   1 28 
   3  10  10  10  10   1 32
   3  10  10  10  10   1 32
   1  10  10  10  10   1 32
   6  10  10  10  10   1 32
   4  10  10  10  10   1 32
   0   0   0   0   0   0 
